
  32    4
  10   10   10   10

   0   0   0   0   0   5 2 4 8 10 13 
   8   1   0   1   1   2 21 3 
   7   4   2   0   4   2 14 5 
   7   4   1   3   0   3 21 14 6 
   9   2   0   3   5   3 31 11 7 
   8   4   5   0   4   5 31 30 29 12 11 
   4   3   0   3   6   2 20 9 
   3   3   3   0   2   5 29 28 27 18 14 
   7   0   3   2   3   3 29 18 12 
   8   0   1   3   1   3 29 18 12 
   5   2   6   5   0   6 28 27 26 20 18 15 
   3   0   5   4   4   6 28 27 25 24 23 16 
   4   3   0   4   4   3 21 20 15 
   4   7   4   3   0   3 23 17 15 
   4   5  10   4   0   3 25 24 22 
   8   0   4   6   2   2 22 19 
   8   5   4   0   4   2 30 22 
   1   4   3   2   0   1 23 
   8   0   7   5   8   1 26 
   8   7   5   0   3   1 23 
   8   4   4   0   3   1 30 
  10   3   2   0   6   1 32
   1   0   8   6   8   1 32
  10   3   4   4   0   1 32
  10   7   4   0   3   1 32
   3   0   1   4   6   1 32
   5   4   5   7   0   1 32
   2   4   5   0   3   1 32
   1   5   0   3   4   1 32
  10   4   3   4   0   1 32
   1   4   1   8   0   1 32
   0   0   0   0   0   0 
